p cnf 12 22
12 -11 -8 0
12 -11 2 0
-12 -9 8 0
12 -8 -6 0
12 7 -6 0
-11 -10 -8 0
-11 -10 2 0
-11 -9 7 0
-11 -8 5 0
11 -4 1 0
10 9 -2 0
10 7 6 0
10 -4 3 0
-10 4 -1 0
-10 2 1 0
9 -7 -5 0
-8 7 5 0
-8 -6 -3 0
8 3 2 0
7 4 -3 0
-7 4 -1 0
7 2 -1 0
